c b=7,c=1025
p cnf 24 31
7 -14 0
7 -24 0
-7 14 0
-7 24 0
6 -13 0
6 -23 0
-6 13 0
-6 23 0
5 -12 0
5 -22 0
-5 12 0
-5 22 0
4 -11 0
4 -21 0
-4 11 0
-4 21 0
3 -10 0
3 -20 0
-3 10 0
-3 20 0
2 -9 0
2 -19 0
-2 9 0
-2 19 0
1 -8 0
1 -18 0
-1 8 0
-1 18 0
-15 0
-16 0
-17 0
